unsat
(define-fun f ((x (_ BitVec 64))) (_ BitVec 64) (if0 (bvand #b0000000000000000000000000000000000000000000000000000000000000001 (bvnot x)) (shl1 x) (if0 (bvand #b0000000000000000000000000000000000000000000000000000000000000001 (shr16 x)) (shr1 x) #b0000000000000000000000000000000000000000000000000000000000000000)))
0.03user 0.01system 0:00.05elapsed 98%CPU (0avgtext+0avgdata 26768maxresident)k
8inputs+8outputs (0major+1385minor)pagefaults 0swaps
